certificates/rado_a13_c126_N31.cnf
c Rad2 upper bound instance: x1 + 13*x2 - x3 = 126, interval [1,31]
p cnf 31 146
1 5 10 0
-1 -5 -10 0
1 11 18 0
-1 -11 -18 0
1 12 31 0
-1 -12 -31 0
2 6 10 0
-2 -6 -10 0
2 11 19 0
-2 -11 -19 0
3 7 10 0
-3 -7 -10 0
3 11 20 0
-3 -11 -20 0
4 8 10 0
-4 -8 -10 0
4 11 21 0
-4 -11 -21 0
5 9 10 0
-5 -9 -10 0
5 11 22 0
-5 -11 -22 0
6 10 0
-6 -10 0
6 11 23 0
-6 -11 -23 0
7 10 11 0
-7 -10 -11 0
7 11 24 0
-7 -11 -24 0
8 10 12 0
-8 -10 -12 0
8 11 25 0
-8 -11 -25 0
9 10 13 0
-9 -10 -13 0
9 11 26 0
-9 -11 -26 0
1 9 10 0
-1 -9 -10 0
10 14 0
-10 -14 0
10 11 27 0
-10 -11 -27 0
2 9 11 0
-2 -9 -11 0
10 11 15 0
-10 -11 -15 0
11 28 0
-11 -28 0
3 9 12 0
-3 -9 -12 0
10 12 16 0
-10 -12 -16 0
11 12 29 0
-11 -12 -29 0
4 9 13 0
-4 -9 -13 0
10 13 17 0
-10 -13 -17 0
11 13 30 0
-11 -13 -30 0
5 9 14 0
-5 -9 -14 0
10 14 18 0
-10 -14 -18 0
11 14 31 0
-11 -14 -31 0
6 9 15 0
-6 -9 -15 0
10 15 19 0
-10 -15 -19 0
7 9 16 0
-7 -9 -16 0
10 16 20 0
-10 -16 -20 0
8 9 17 0
-8 -9 -17 0
10 17 21 0
-10 -17 -21 0
9 18 0
-9 -18 0
10 18 22 0
-10 -18 -22 0
9 10 19 0
-9 -10 -19 0
10 19 23 0
-10 -19 -23 0
9 11 20 0
-9 -11 -20 0
10 20 24 0
-10 -20 -24 0
9 12 21 0
-9 -12 -21 0
10 21 25 0
-10 -21 -25 0
9 13 22 0
-9 -13 -22 0
10 22 26 0
-10 -22 -26 0
1 8 23 0
-1 -8 -23 0
9 14 23 0
-9 -14 -23 0
10 23 27 0
-10 -23 -27 0
2 8 24 0
-2 -8 -24 0
9 15 24 0
-9 -15 -24 0
10 24 28 0
-10 -24 -28 0
3 8 25 0
-3 -8 -25 0
9 16 25 0
-9 -16 -25 0
10 25 29 0
-10 -25 -29 0
4 8 26 0
-4 -8 -26 0
9 17 26 0
-9 -17 -26 0
10 26 30 0
-10 -26 -30 0
5 8 27 0
-5 -8 -27 0
9 18 27 0
-9 -18 -27 0
10 27 31 0
-10 -27 -31 0
6 8 28 0
-6 -8 -28 0
9 19 28 0
-9 -19 -28 0
7 8 29 0
-7 -8 -29 0
9 20 29 0
-9 -20 -29 0
8 30 0
-8 -30 0
9 21 30 0
-9 -21 -30 0
8 9 31 0
-8 -9 -31 0
9 22 31 0
-9 -22 -31 0
