certificates/rado_a13_c126_N31.drat
11 -29 8 -31 0
-11 8 -31 0
-30 -31 0
11 29 -8 0
-11 -31 0
d -11 8 -31 0
-8 -31 0
d -8 -9 -31 0
-31 0
11 0
-28 0
12 0
-29 0
-8 0
30 0
9 0
6 0
7 0
-13 0
-21 0
-2 0
-3 0
-18 0
-26 0
-20 0
-10 0
-23 0
-15 0
-24 0
-16 0
17 0
25 0
0
